Minimize
  - 15 y_0 - 34 y_1 - 44 y_2 - 27 y_3 - 15 y_4 - 32 y_5 - 30 y_6 - 36 y_7
   - 10 y_9 + 26 x_0_3 + 37 x_0_4 + 34 x_0_5 + 50 x_0_6 + 75 x_1_2
   + 69 x_1_3 + 32 x_1_6 + 68 x_1_8 + 44 x_2_6 + 16 x_2_7 + 83 x_2_9
   + 15 x_3_5 + 22 x_3_7 + 54 x_3_9 + 34 x_4_6 + 56 x_4_7 + 30 x_4_8
   + 54 x_5_6 + 63 x_5_8 + 68 x_5_9 + 40 x_6_3 + 48 x_6_9 + 67 x_7_9
   + 67 x_7_9 + 67 x_7_9 + 67 x_7_9 + 67 x_7_9 + 67 x_7_9 + 67 x_7_9
   + 67 x_7_9 + 67 x_7_9 + 67 x_7_9 + 67 x_7_9 + 67 x_7_9 + 67 x_7_9
   + 67 x_7_9 + 67 x_7_9 + 67 x_7_9 + 67 x_7_9 + 67 x_7_9 + 67 x_7_9
   + 67 x_7_9 + 67 x_7_9 + 67 x_7_9 + 67 x_7_9 + 67 x_7_9 + 67 x_7_9
   + 67 x_7_9 + 67 x_7_9 + 67 x_7_9 + 67 x_7_9 + 67 x_7_9 + 67 x_7_9
   + 67 x_7_9 + 67 x_7_9 + 67 x_7_9 + 67 x_7_9 + 67 x_7_9 + 67 x_7_9
   + 67 x_7_9 + 67 x_7_9 + 67 x_7_9 + 67 x_7_9 + 67 x_7_9 + 67 x_7_9
   + 67 x_7_9 + 67 x_7_9 + 67 x_7_9 + 67 x_7_9 + 67 x_7_9 + 67 x_7_9
   + 67 x_7_9 + 67 x_7_9 + 67 x_7_9 + 67 x_7_9 + 67 x_7_9 + 67 x_7_9
   + 67 x_7_9 + 67 x_7_9 + 67 x_7_9 + 67 x_7_9 + 67 x_7_9 + 67 x_7_9
   + 67 x_7_9 + 67 x_7_9 + 67 x_7_9 + 67 x_7_9 + 67 x_7_9 + 67 x_7_9
   + 67 x_7_9 + 67 x_7_9 + 67 x_7_9 + 67 x_7_9 + 67 x_7_9 + 67 x_7_9
   + 67 x_7_9 + 67 x_7_9 + 67 x_7_9 + 67 x_7_9 + 67 x_7_9 + 67 x_7_9
   + 67 x_7_9 + 67 x_7_9 + 67 x_7_9 + 67 x_7_9 + 67 x_7_9 + 67 x_7_9
   + 67 x_7_9 + 67 x_7_9 + 67 x_7_9 + 67 x_7_9 + 67 x_7_9 + 67 x_7_9
   + 67 x_7_9 + 67 x_7_9 + 67 x_7_9 + 67 x_7_9 + 67 x_7_9 + 67 x_7_9
   + 67 x_7_9 + 67 x_7_9 + 67 x_7_9 + 67 x_7_9 + 67 x_7_9 + 67 x_7_9
   + 67 x_7_9 + 67 x_7_9 + 67 x_7_9 + 67 x_7_9 + 67 x_7_9 + 67 x_7_9
   + 67 x_7_9 + 67 x_7_9 + 67 x_7_9 + 67 x_7_9 + 67 x_7_9 + 67 x_7_9
   + 67 x_7_9 + 67 x_7_9 + 67 x_7_9 + 67 x_7_9 + 67 x_7_9 + 67 x_7_9
   + 67 x_7_9 + 67 x_7_9 + 67 x_7_9 + 67 x_7_9 + 67 x_7_9 + 67 x_7_9
   + 67 x_7_9 + 67 x_7_9 + 67 x_7_9 + 67 x_7_9 + 67 x_7_9 + 67 x_7_9
   + 67 x_7_9 + 67 x_7_9 + 67 x_7_9 + 67 x_7_9 + 67 x_7_9 + 67 x_7_9
   + 67 x_7_9 + 67 x_7_9 + 67 x_7_9 + 67 x_7_9 + 67 x_7_9 + 67 x_7_9
   + 67 x_7_9 + 67 x_7_9 + 67 x_7_9 + 67 x_7_9 + 67 x_7_9 + 67 x_7_9
   + 67 x_7_9 + 67 x_7_9 + 67 x_7_9 + 67 x_7_9 + 67 x_7_9 + 67 x_7_9
   + 67 x_7_9 + 67 x_7_9 + 67 x_7_9 + 67 x_7_9 + 67 x_7_9 + 67 x_7_9
   + 67 x_7_9 + 67 x_7_9 + 67 x_7_9 + 67 x_7_9 + 67 x_7_9 + 67 x_7_9
   + 67 x_7_9 + 67 x_7_9 + 67 x_7_9 + 67 x_7_9 + 67 x_7_9 + 67 x_7_9
   + 67 x_7_9 + 67 x_7_9 + 67 x_7_9 + 67 x_7_9 + 67 x_7_9 + 67 x_7_9
   + 67 x_7_9 + 67 x_7_9 + 67 x_7_9 + 67 x_7_9 + 67 x_7_9 + 67 x_7_9
   + 67 x_7_9 + 67 x_7_9 + 67 x_7_9 + 67 x_7_9 + 67 x_7_9 + 67 x_7_9
   + 67 x_7_9 + 67 x_7_9 + 67 x_7_9 + 67 x_7_9 + 67 x_7_9 + 67 x_7_9
   + 67 x_7_9 + 67 x_7_9 + 67 x_7_9 + 67 x_7_9 + 67 x_7_9 + 67 x_7_9
   + 67 x_7_9 + 67 x_7_9 + 67 x_7_9 + 67 x_7_9 + 67 x_7_9 + 67 x_7_9
   + 67 x_7_9 + 67 x_7_9 + 67 x_7_9 + 67 x_7_9 + 67 x_7_9 + 243 Constant
Subject To
 c_0: y_1 = 1
 c_1_0: y_0 >= 1
 c_1_1: y_1 >= 1
 c_1_2: y_2 >= 1
 c_1_3: y_3 >= 1
 c_1_4: y_4 >= 1
 c_1_5: y_5 >= 1
 c_1_6: y_6 >= 1
 c_1_7: y_7 >= 1
 c_1_8: y_8 >= 1
 c_1_9: y_9 >= 1
 c_2_0: - 2 y_0 + x_0_3 + x_0_4 + x_0_5 + x_0_6 = 0
 c_2_1: - 2 y_1 + x_1_2 + x_1_3 + x_1_6 + x_1_8 = 0
 c_2_2: - 2 y_2 + x_1_2 + x_2_6 + x_2_7 + x_2_9 = 0
 c_2_3: - 2 y_3 + x_0_3 + x_1_3 + x_3_5 + x_3_7 + x_3_9 + x_6_3 = 0
 c_2_4: - 2 y_4 + x_0_4 + x_4_6 + x_4_7 + x_4_8 = 0
 c_2_5: - 2 y_5 + x_0_5 + x_3_5 + x_5_6 + x_5_8 + x_5_9 = 0
 c_2_6: - 2 y_6 + x_0_6 + x_1_6 + x_2_6 + x_4_6 + x_5_6 + x_6_3 + x_6_9
   = 0
 c_2_7: - 2 y_7 + x_2_7 + x_3_7 + x_4_7 + 216 x_7_9 = 0
 c_2_8: - 2 y_8 + x_1_8 + x_4_8 + x_5_8 = 0
 c_2_9: - 2 y_9 + x_2_9 + x_3_9 + x_5_9 + x_6_9 + 216 x_7_9 = 0
Bounds
 Constant = 1
Binaries
 y_0 y_1 y_2 y_3 y_4 y_5 y_6 y_7 y_8 y_9 x_0_3 x_0_4 x_0_5 x_0_6 x_1_2
 x_1_3 x_1_6 x_1_8 x_2_6 x_2_7 x_2_9 x_3_5 x_3_7 x_3_9 x_4_6 x_4_7 x_4_8
 x_5_6 x_5_8 x_5_9 x_6_3 x_6_9 x_7_9 x_7_9 x_7_9 x_7_9 x_7_9 x_7_9 x_7_9
 x_7_9 x_7_9 x_7_9 x_7_9 x_7_9 x_7_9 x_7_9 x_7_9 x_7_9 x_7_9 x_7_9 x_7_9
 x_7_9 x_7_9 x_7_9 x_7_9 x_7_9 x_7_9 x_7_9 x_7_9 x_7_9 x_7_9 x_7_9 x_7_9
 x_7_9 x_7_9 x_7_9 x_7_9 x_7_9 x_7_9 x_7_9 x_7_9 x_7_9 x_7_9 x_7_9 x_7_9
 x_7_9 x_7_9 x_7_9 x_7_9 x_7_9 x_7_9 x_7_9 x_7_9 x_7_9 x_7_9 x_7_9 x_7_9
 x_7_9 x_7_9 x_7_9 x_7_9 x_7_9 x_7_9 x_7_9 x_7_9 x_7_9 x_7_9 x_7_9 x_7_9
 x_7_9 x_7_9 x_7_9 x_7_9 x_7_9 x_7_9 x_7_9 x_7_9 x_7_9 x_7_9 x_7_9 x_7_9
 x_7_9 x_7_9 x_7_9 x_7_9 x_7_9 x_7_9 x_7_9 x_7_9 x_7_9 x_7_9 x_7_9 x_7_9
 x_7_9 x_7_9 x_7_9 x_7_9 x_7_9 x_7_9 x_7_9 x_7_9 x_7_9 x_7_9 x_7_9 x_7_9
 x_7_9 x_7_9 x_7_9 x_7_9 x_7_9 x_7_9 x_7_9 x_7_9 x_7_9 x_7_9 x_7_9 x_7_9
 x_7_9 x_7_9 x_7_9 x_7_9 x_7_9 x_7_9 x_7_9 x_7_9 x_7_9 x_7_9 x_7_9 x_7_9
 x_7_9 x_7_9 x_7_9 x_7_9 x_7_9 x_7_9 x_7_9 x_7_9 x_7_9 x_7_9 x_7_9 x_7_9
 x_7_9 x_7_9 x_7_9 x_7_9 x_7_9 x_7_9 x_7_9 x_7_9 x_7_9 x_7_9 x_7_9 x_7_9
 x_7_9 x_7_9 x_7_9 x_7_9 x_7_9 x_7_9 x_7_9 x_7_9 x_7_9 x_7_9 x_7_9 x_7_9
 x_7_9 x_7_9 x_7_9 x_7_9 x_7_9 x_7_9 x_7_9 x_7_9 x_7_9 x_7_9 x_7_9 x_7_9
 x_7_9 x_7_9 x_7_9 x_7_9 x_7_9 x_7_9 x_7_9 x_7_9 x_7_9 x_7_9 x_7_9 x_7_9
 x_7_9 x_7_9 x_7_9 x_7_9 x_7_9 x_7_9 x_7_9 x_7_9 x_7_9 x_7_9 x_7_9 x_7_9
 x_7_9 x_7_9 x_7_9 x_7_9 x_7_9 x_7_9 x_7_9 x_7_9 x_7_9 x_7_9 x_7_9 x_7_9
 x_7_9 x_7_9 x_7_9 x_7_9 x_7_9
End
